benchmark/results/graph__10-1000-0.10-03_14/graph__10-1000-0.10-03_14_QuintonOs_Benders_aux.lp
\ This file has been generated by DOcplex
\ ENCODING=ISO-8859-1
\Problem name: Quinton Bounded Benders_auxiliary_sub

Minimize
 obj: 0.003118382092 pi_nr_a0 + 0.001155655230 pi_nr_a1
      + 0.001371260044 pi_nr_a2 + 0.001768872535 pi_nr_a3
      + 0.001198207608 pi_nr_a4 + 0.001375205272 pi_nr_a5
      + 0.001537822612 pi_nr_a6 + 0.001833683061 pi_nr_a7
      + 0.001876027961 pi_nr_a8 + 0.001197312377 pi_nr_a9 + pi_p_a0_a2
      + pi_p_a5_a2 + pi_p_a9_a3 + pi_p_a9_a9 + pi_p_a1_a1
      + 2382.205078125000 pi_d_a0_a1_proc_2 + 111.078125000000 pi_d_a0_a1_proc_0
      + 2379.191406250000 pi_d_a1_a0_proc_2 + 108.064453125000 pi_d_a1_a0_proc_0
      + 2472.308593750000 pi_d_a0_a2_proc_2
      + 2346.269531250000 pi_d_a0_a2_proc_1 + 157.552734375000 pi_d_a0_a2_proc_0
      + 2468.451171875000 pi_d_a2_a0_proc_2
      + 2342.412109375000 pi_d_a2_a0_proc_1 + 153.695312500000 pi_d_a2_a0_proc_0
      + 1266.093750000000 pi_d_a0_a3_proc_1
      + 1256.398437500000 pi_d_a0_a3_proc_0
      + 1241.142578125000 pi_d_a3_a0_proc_1
      + 1231.447265625000 pi_d_a3_a0_proc_0
      + 1236.394531250000 pi_d_a0_a4_proc_2
      + 2458.003906250000 pi_d_a0_a4_proc_1
      + 1238.818359375000 pi_d_a0_a4_proc_0
      + 1261.146484375000 pi_d_a4_a0_proc_2
      + 2482.755859375000 pi_d_a4_a0_proc_1
      + 1263.570312500000 pi_d_a4_a0_proc_0
      + 1412.246093750000 pi_d_a0_a5_proc_1
      + 1106.843750000000 pi_d_a0_a5_proc_0
      + 1390.697265625000 pi_d_a5_a0_proc_1
      + 1085.294921875000 pi_d_a5_a0_proc_0
      + 1246.609375000000 pi_d_a0_a6_proc_2
      + 1221.845703125000 pi_d_a6_a0_proc_2
      + 1398.029296875000 pi_d_a0_a7_proc_2
      + 2486.328125000000 pi_d_a0_a7_proc_1
      + 1119.289062500000 pi_d_a0_a7_proc_0
      + 1375.828125000000 pi_d_a7_a0_proc_2
      + 2464.126953125000 pi_d_a7_a0_proc_1
      + 1097.087890625000 pi_d_a7_a0_proc_0
      + 1253.951171875000 pi_d_a0_a8_proc_1
      + 1229.046875000000 pi_d_a8_a0_proc_1
      + 2450.820312500000 pi_d_a0_a9_proc_2
      + 2479.906250000000 pi_d_a0_a9_proc_1 + 39.111328125000 pi_d_a0_a9_proc_0
      + 2451.158203125000 pi_d_a9_a0_proc_2
      + 2480.244140625000 pi_d_a9_a0_proc_1 + 39.449218750000 pi_d_a9_a0_proc_0
      + 2389.945312500000 pi_d_a1_a2_proc_2 + 237.585937500000 pi_d_a1_a2_proc_0
      + 2385.994140625000 pi_d_a2_a1_proc_2 + 233.634765625000 pi_d_a2_a1_proc_0
      + 1311.750000000000 pi_d_a1_a3_proc_0
      + 1336.068359375000 pi_d_a3_a1_proc_0
      + 1178.023437500000 pi_d_a1_a4_proc_2
      + 1342.843750000000 pi_d_a1_a4_proc_0
      + 1154.697265625000 pi_d_a4_a1_proc_2
      + 1319.517578125000 pi_d_a4_a1_proc_0
      + 1177.156250000000 pi_d_a1_a5_proc_0
      + 1174.955078125000 pi_d_a5_a1_proc_0
      + 1163.339843750000 pi_d_a1_a6_proc_2
      + 1140.294921875000 pi_d_a6_a1_proc_2
      + 1315.912109375000 pi_d_a1_a7_proc_2
      + 1199.568359375000 pi_d_a1_a7_proc_0
      + 1293.125000000000 pi_d_a7_a1_proc_2
      + 1176.781250000000 pi_d_a7_a1_proc_0
      + 2369.273437500000 pi_d_a1_a9_proc_2 + 119.960937500000 pi_d_a1_a9_proc_0
      + 2367.884765625000 pi_d_a9_a1_proc_2 + 118.572265625000 pi_d_a9_a1_proc_0
      + 1131.259765625000 pi_d_a2_a3_proc_1
      + 1380.914062500000 pi_d_a2_a3_proc_0
      + 1109.355468750000 pi_d_a3_a2_proc_1
      + 1359.009765625000 pi_d_a3_a2_proc_0
      + 1268.417968750000 pi_d_a2_a4_proc_2
      + 2349.445312500000 pi_d_a2_a4_proc_1
      + 1389.609375000000 pi_d_a2_a4_proc_0
      + 1243.666015625000 pi_d_a4_a2_proc_2
      + 2324.693359375000 pi_d_a4_a2_proc_1
      + 1364.857421875000 pi_d_a4_a2_proc_0
      + 1277.539062500000 pi_d_a2_a5_proc_1
      + 1231.486328125000 pi_d_a2_a5_proc_0
      + 1258.783203125000 pi_d_a5_a2_proc_1
      + 1212.730468750000 pi_d_a5_a2_proc_0
      + 1253.949218750000 pi_d_a2_a6_proc_2
      + 1229.048828125000 pi_d_a6_a2_proc_2
      + 1406.574218750000 pi_d_a2_a7_proc_2
      + 2354.291015625000 pi_d_a2_a7_proc_1
      + 1246.601562500000 pi_d_a2_a7_proc_0
      + 1381.826171875000 pi_d_a7_a2_proc_2
      + 2329.542968750000 pi_d_a7_a2_proc_1
      + 1221.853515625000 pi_d_a7_a2_proc_0
      + 1119.242187500000 pi_d_a2_a8_proc_1
      + 1097.134765625000 pi_d_a8_a2_proc_1
      + 2459.183593750000 pi_d_a2_a9_proc_2
      + 2347.687500000000 pi_d_a2_a9_proc_1 + 166.242187500000 pi_d_a2_a9_proc_0
      + 2457.337890625000 pi_d_a9_a2_proc_2
      + 2345.841796875000 pi_d_a9_a2_proc_1 + 164.396484375000 pi_d_a9_a2_proc_0
      + 1258.822265625000 pi_d_a3_a4_proc_1
      + 2478.007812500000 pi_d_a3_a4_proc_0
      + 1233.871093750000 pi_d_a4_a3_proc_1
      + 2453.056640625000 pi_d_a4_a3_proc_0 + 178.742187500000 pi_d_a3_a5_proc_1
      + 2311.710937500000 pi_d_a3_a5_proc_0 + 176.134765625000 pi_d_a5_a3_proc_1
      + 2309.103515625000 pi_d_a5_a3_proc_0
      + 1263.505859375000 pi_d_a3_a7_proc_1
      + 2334.837890625000 pi_d_a3_a7_proc_0
      + 1238.882812500000 pi_d_a7_a3_proc_1
      + 2310.214843750000 pi_d_a7_a3_proc_0 + 18.082031250000 pi_d_a3_a8_proc_1
      + 16.849609375000 pi_d_a8_a3_proc_1 + 1268.416015625000 pi_d_a3_a9_proc_1
      + 1265.992187500000 pi_d_a3_a9_proc_0
      + 1243.667968750000 pi_d_a9_a3_proc_1
      + 1241.244140625000 pi_d_a9_a3_proc_0
      + 1406.523437500000 pi_d_a4_a5_proc_1
      + 2330.001953125000 pi_d_a4_a5_proc_0
      + 1381.876953125000 pi_d_a5_a4_proc_1
      + 2305.355468750000 pi_d_a5_a4_proc_0 + 21.115234375000 pi_d_a4_a6_proc_2
      + 18.664062500000 pi_d_a6_a4_proc_2 + 174.566406250000 pi_d_a4_a7_proc_2
      + 2469.931640625000 pi_d_a4_a7_proc_1
      + 2331.773437500000 pi_d_a4_a7_proc_0 + 170.615234375000 pi_d_a7_a4_proc_2
      + 2465.980468750000 pi_d_a7_a4_proc_1
      + 2327.822265625000 pi_d_a7_a4_proc_0
      + 1246.609375000000 pi_d_a4_a8_proc_1
      + 1221.845703125000 pi_d_a8_a4_proc_1
      + 1249.074218750000 pi_d_a4_a9_proc_2
      + 2485.226562500000 pi_d_a4_a9_proc_1
      + 1273.312500000000 pi_d_a4_a9_proc_0
      + 1224.228515625000 pi_d_a9_a4_proc_2
      + 2460.380859375000 pi_d_a9_a4_proc_1
      + 1248.466796875000 pi_d_a9_a4_proc_0
      + 1411.523437500000 pi_d_a5_a7_proc_1
      + 2187.148437500000 pi_d_a5_a7_proc_0
      + 1386.572265625000 pi_d_a7_a5_proc_1
      + 2162.197265625000 pi_d_a7_a5_proc_0 + 167.365234375000 pi_d_a5_a8_proc_1
      + 163.273437500000 pi_d_a8_a5_proc_1 + 1405.824218750000 pi_d_a5_a9_proc_1
      + 1107.693359375000 pi_d_a5_a9_proc_0
      + 1401.966796875000 pi_d_a9_a5_proc_1
      + 1103.835937500000 pi_d_a9_a5_proc_0 + 159.148437500000 pi_d_a6_a7_proc_2
      + 156.947265625000 pi_d_a7_a6_proc_2 + 1234.355468750000 pi_d_a6_a9_proc_2
      + 1209.861328125000 pi_d_a9_a6_proc_2
      + 1251.500000000000 pi_d_a7_a8_proc_1
      + 1226.650390625000 pi_d_a8_a7_proc_1
      + 1386.027343750000 pi_d_a7_a9_proc_2
      + 2488.869140625000 pi_d_a7_a9_proc_1
      + 1129.101562500000 pi_d_a7_a9_proc_0
      + 1363.591796875000 pi_d_a9_a7_proc_2
      + 2466.433593750000 pi_d_a9_a7_proc_1
      + 1106.666015625000 pi_d_a9_a7_proc_0
      + 1256.398437500000 pi_d_a8_a9_proc_1
      + 1231.447265625000 pi_d_a9_a8_proc_1 + 0.988281250000 pi_y2_a0_proc_0
      + 0.001953125000 pi_y2_a0_proc_1 + 0.007812500000 pi_y2_a0_proc_2
      + 0.923828125000 pi_y2_a1_proc_0 + 0.074218750000 pi_y2_a1_proc_2
      + 0.886718750000 pi_y2_a2_proc_0 + 0.109375000000 pi_y2_a2_proc_1
      + 0.001953125000 pi_y2_a2_proc_2 + 0.009765625000 pi_y2_a3_proc_0
      + 0.988281250000 pi_y2_a3_proc_1 + 0.003906250000 pi_y2_a4_proc_0
      + 0.007812500000 pi_y2_a4_proc_1 + 0.986328125000 pi_y2_a4_proc_2
      + 0.128906250000 pi_y2_a5_proc_0 + 0.869140625000 pi_y2_a5_proc_1
      + 0.998046875000 pi_y2_a6_proc_2 + 0.119140625000 pi_y2_a7_proc_0
      + 0.003906250000 pi_y2_a7_proc_1 + 0.875000000000 pi_y2_a7_proc_2
      + 0.998046875000 pi_y2_a8_proc_1 + 0.980468750000 pi_y2_a9_proc_0
      + 0.017578125000 pi_y2_a9_proc_2
Subject To
 c1: 0.003134796238 pi_nr_a0 + 0.001172332943 pi_nr_a1 + 0.001438848921 pi_nr_a2
     + 0.001776198934 pi_nr_a3 + 0.001203369434 pi_nr_a4
     + 0.001388888889 pi_nr_a5 + 0.001540832049 pi_nr_a6
     + 0.001953125000 pi_nr_a7 + 0.001879699248 pi_nr_a8
     + 0.001206272618 pi_nr_a9 + pi_p_a0_a2 + pi_p_a5_a2 + pi_p_a9_a3
     + pi_p_a9_a9 + pi_p_a1_a1 + 2483 pi_d_a0_a1_proc_2 + pi_d_a0_a1_proc_0
     + 2482 pi_d_a1_a0_proc_2 + 2483 pi_d_a0_a2_proc_2 + 2483 pi_d_a0_a2_proc_1
     + pi_d_a0_a2_proc_0 + 2482 pi_d_a2_a0_proc_2 + 2482 pi_d_a2_a0_proc_1
     + 1254 pi_d_a0_a3_proc_1 + 1254 pi_d_a0_a3_proc_0 + 1229 pi_d_a3_a0_proc_1
     + 1229 pi_d_a3_a0_proc_0 + 1229 pi_d_a0_a4_proc_2 + 2470 pi_d_a0_a4_proc_1
     + 1229 pi_d_a0_a4_proc_0 + 1254 pi_d_a4_a0_proc_2 + 2495 pi_d_a4_a0_proc_1
     + 1254 pi_d_a4_a0_proc_0 + 1254 pi_d_a0_a5_proc_1 + 1254 pi_d_a0_a5_proc_0
     + 1229 pi_d_a5_a0_proc_1 + 1229 pi_d_a5_a0_proc_0 + 1254 pi_d_a0_a6_proc_2
     + 1229 pi_d_a6_a0_proc_2 + 1254 pi_d_a0_a7_proc_2 + 2495 pi_d_a0_a7_proc_1
     + 1254 pi_d_a0_a7_proc_0 + 1229 pi_d_a7_a0_proc_2 + 2470 pi_d_a7_a0_proc_1
     + 1229 pi_d_a7_a0_proc_0 + 1254 pi_d_a0_a8_proc_1 + 1229 pi_d_a8_a0_proc_1
     + 2482 pi_d_a0_a9_proc_2 + 2482 pi_d_a0_a9_proc_1 + 2483 pi_d_a9_a0_proc_2
     + 2483 pi_d_a9_a0_proc_1 + pi_d_a9_a0_proc_0 + 2483 pi_d_a1_a2_proc_2
     + pi_d_a1_a2_proc_0 + 2482 pi_d_a2_a1_proc_2 + 1229 pi_d_a1_a3_proc_0
     + 1254 pi_d_a3_a1_proc_0 + 1254 pi_d_a1_a4_proc_2 + 1254 pi_d_a1_a4_proc_0
     + 1229 pi_d_a4_a1_proc_2 + 1229 pi_d_a4_a1_proc_0 + 1241 pi_d_a1_a5_proc_0
     + 1242 pi_d_a5_a1_proc_0 + 1254 pi_d_a1_a6_proc_2 + 1229 pi_d_a6_a1_proc_2
     + 1254 pi_d_a1_a7_proc_2 + 1254 pi_d_a1_a7_proc_0 + 1229 pi_d_a7_a1_proc_2
     + 1229 pi_d_a7_a1_proc_0 + 2482 pi_d_a1_a9_proc_2 + 2483 pi_d_a9_a1_proc_2
     + pi_d_a9_a1_proc_0 + 1254 pi_d_a2_a3_proc_1 + 1254 pi_d_a2_a3_proc_0
     + 1229 pi_d_a3_a2_proc_1 + 1229 pi_d_a3_a2_proc_0 + 1254 pi_d_a2_a4_proc_2
     + 2495 pi_d_a2_a4_proc_1 + 1254 pi_d_a2_a4_proc_0 + 1229 pi_d_a4_a2_proc_2
     + 2470 pi_d_a4_a2_proc_1 + 1229 pi_d_a4_a2_proc_0 + 1254 pi_d_a2_a5_proc_1
     + 1254 pi_d_a2_a5_proc_0 + 1229 pi_d_a5_a2_proc_1 + 1229 pi_d_a5_a2_proc_0
     + 1254 pi_d_a2_a6_proc_2 + 1229 pi_d_a6_a2_proc_2 + 1254 pi_d_a2_a7_proc_2
     + 2495 pi_d_a2_a7_proc_1 + 1254 pi_d_a2_a7_proc_0 + 1229 pi_d_a7_a2_proc_2
     + 2470 pi_d_a7_a2_proc_1 + 1229 pi_d_a7_a2_proc_0 + 1254 pi_d_a2_a8_proc_1
     + 1229 pi_d_a8_a2_proc_1 + 2482 pi_d_a2_a9_proc_2 + 2482 pi_d_a2_a9_proc_1
     + 2483 pi_d_a9_a2_proc_2 + 2483 pi_d_a9_a2_proc_1 + pi_d_a9_a2_proc_0
     + 1254 pi_d_a3_a4_proc_1 + 2495 pi_d_a3_a4_proc_0 + 1229 pi_d_a4_a3_proc_1
     + 2470 pi_d_a4_a3_proc_0 + 2482 pi_d_a3_a5_proc_0 + pi_d_a5_a3_proc_1
     + 2483 pi_d_a5_a3_proc_0 + 1254 pi_d_a3_a7_proc_1 + 2495 pi_d_a3_a7_proc_0
     + 1229 pi_d_a7_a3_proc_1 + 2470 pi_d_a7_a3_proc_0 + pi_d_a3_a8_proc_1
     + 1254 pi_d_a3_a9_proc_1 + 1254 pi_d_a3_a9_proc_0 + 1229 pi_d_a9_a3_proc_1
     + 1229 pi_d_a9_a3_proc_0 + 1254 pi_d_a4_a5_proc_1 + 2495 pi_d_a4_a5_proc_0
     + 1229 pi_d_a5_a4_proc_1 + 2470 pi_d_a5_a4_proc_0 + pi_d_a4_a6_proc_2
     + pi_d_a4_a7_proc_2 + 2483 pi_d_a4_a7_proc_1 + 2483 pi_d_a4_a7_proc_0
     + 2482 pi_d_a7_a4_proc_1 + 2482 pi_d_a7_a4_proc_0 + 1254 pi_d_a4_a8_proc_1
     + 1229 pi_d_a8_a4_proc_1 + 1254 pi_d_a4_a9_proc_2 + 2495 pi_d_a4_a9_proc_1
     + 1254 pi_d_a4_a9_proc_0 + 1229 pi_d_a9_a4_proc_2 + 2470 pi_d_a9_a4_proc_1
     + 1229 pi_d_a9_a4_proc_0 + 1254 pi_d_a5_a7_proc_1 + 2495 pi_d_a5_a7_proc_0
     + 1229 pi_d_a7_a5_proc_1 + 2470 pi_d_a7_a5_proc_0 + pi_d_a5_a8_proc_1
     + 1242 pi_d_a5_a9_proc_1 + 1242 pi_d_a5_a9_proc_0 + 1241 pi_d_a9_a5_proc_1
     + 1241 pi_d_a9_a5_proc_0 + pi_d_a7_a6_proc_2 + 1254 pi_d_a6_a9_proc_2
     + 1229 pi_d_a9_a6_proc_2 + 1254 pi_d_a7_a8_proc_1 + 1229 pi_d_a8_a7_proc_1
     + 1254 pi_d_a7_a9_proc_2 + 2495 pi_d_a7_a9_proc_1 + 1254 pi_d_a7_a9_proc_0
     + 1229 pi_d_a9_a7_proc_2 + 2470 pi_d_a9_a7_proc_1 + 1229 pi_d_a9_a7_proc_0
     + 1254 pi_d_a8_a9_proc_1 + 1229 pi_d_a9_a8_proc_1 + pi_y2_a0_proc_0
     + pi_y2_a1_proc_0 + pi_y2_a2_proc_0 + pi_y2_a3_proc_1 + pi_y2_a4_proc_2
     + pi_y2_a5_proc_1 + pi_y2_a6_proc_2 + pi_y2_a7_proc_2 + pi_y2_a8_proc_1
     + pi_y2_a9_proc_0 = 0.000232180172
 c2: pi_nr_a0 + pi_nr_a1 + pi_nr_a2 + pi_nr_a3 + pi_nr_a4 + pi_nr_a5 + pi_nr_a6
     + pi_nr_a7 + pi_nr_a8 + pi_nr_a9 - pi_y1_a0 - pi_y1_a1 - pi_y1_a2
     - pi_y1_a3 - pi_y1_a4 - pi_y1_a5 - pi_y1_a6 - pi_y1_a7 - pi_y1_a8
     - pi_y1_a9 >= 1
 c3: - pi_p_a1_a0 + pi_p_a0_a2 - pi_p_a3_a0 + pi_p_a0_a9 + pi_d_a0_a1_proc_2
     + pi_d_a0_a1_proc_0 - pi_d_a1_a0_proc_2 - pi_d_a1_a0_proc_0
     + pi_d_a0_a2_proc_2 + pi_d_a0_a2_proc_1 + pi_d_a0_a2_proc_0
     - pi_d_a2_a0_proc_2 - pi_d_a2_a0_proc_1 - pi_d_a2_a0_proc_0
     + pi_d_a0_a3_proc_1 + pi_d_a0_a3_proc_0 - pi_d_a3_a0_proc_1
     - pi_d_a3_a0_proc_0 + pi_d_a0_a4_proc_2 + pi_d_a0_a4_proc_1
     + pi_d_a0_a4_proc_0 - pi_d_a4_a0_proc_2 - pi_d_a4_a0_proc_1
     - pi_d_a4_a0_proc_0 + pi_d_a0_a5_proc_1 + pi_d_a0_a5_proc_0
     - pi_d_a5_a0_proc_1 - pi_d_a5_a0_proc_0 + pi_d_a0_a6_proc_2
     - pi_d_a6_a0_proc_2 + pi_d_a0_a7_proc_2 + pi_d_a0_a7_proc_1
     + pi_d_a0_a7_proc_0 - pi_d_a7_a0_proc_2 - pi_d_a7_a0_proc_1
     - pi_d_a7_a0_proc_0 + pi_d_a0_a8_proc_1 - pi_d_a8_a0_proc_1
     + pi_d_a0_a9_proc_2 + pi_d_a0_a9_proc_1 + pi_d_a0_a9_proc_0
     - pi_d_a9_a0_proc_2 - pi_d_a9_a0_proc_1 - pi_d_a9_a0_proc_0 >= 0
 c4: 319 pi_p_a0_a2 + 319 pi_p_a0_a9 + 319 pi_d_a0_a1_proc_0
     + 319 pi_d_a0_a2_proc_0 + 319 pi_d_a0_a3_proc_0 + 319 pi_d_a0_a4_proc_0
     + 319 pi_d_a0_a5_proc_0 + 319 pi_d_a0_a7_proc_0 + 319 pi_d_a0_a9_proc_0
     + pi_y1_a0 + pi_y2_a0_proc_0 >= 0
 c5: 873 pi_p_a0_a2 + 873 pi_p_a0_a9 + 873 pi_d_a0_a2_proc_1
     + 873 pi_d_a0_a3_proc_1 + 873 pi_d_a0_a4_proc_1 + 873 pi_d_a0_a5_proc_1
     + 873 pi_d_a0_a7_proc_1 + 873 pi_d_a0_a8_proc_1 + 873 pi_d_a0_a9_proc_1
     + pi_y1_a0 + pi_y2_a0_proc_1 >= 0
 c6: 432 pi_p_a0_a2 + 432 pi_p_a0_a9 + 432 pi_d_a0_a1_proc_2
     + 432 pi_d_a0_a2_proc_2 + 432 pi_d_a0_a4_proc_2 + 432 pi_d_a0_a6_proc_2
     + 432 pi_d_a0_a7_proc_2 + 432 pi_d_a0_a9_proc_2 + pi_y1_a0
     + pi_y2_a0_proc_2 >= 0
 c7: pi_p_a1_a0 - pi_d_a0_a1_proc_2 - pi_d_a0_a1_proc_0 + pi_d_a1_a0_proc_2
     + pi_d_a1_a0_proc_0 + pi_d_a1_a2_proc_2 + pi_d_a1_a2_proc_0
     - pi_d_a2_a1_proc_2 - pi_d_a2_a1_proc_0 + pi_d_a1_a3_proc_0
     - pi_d_a3_a1_proc_0 + pi_d_a1_a4_proc_2 + pi_d_a1_a4_proc_0
     - pi_d_a4_a1_proc_2 - pi_d_a4_a1_proc_0 + pi_d_a1_a5_proc_0
     - pi_d_a5_a1_proc_0 + pi_d_a1_a6_proc_2 - pi_d_a6_a1_proc_2
     + pi_d_a1_a7_proc_2 + pi_d_a1_a7_proc_0 - pi_d_a7_a1_proc_2
     - pi_d_a7_a1_proc_0 + pi_d_a1_a9_proc_2 + pi_d_a1_a9_proc_0
     - pi_d_a9_a1_proc_2 - pi_d_a9_a1_proc_0 >= 0
 c8: 853 pi_p_a1_a0 + 853 pi_p_a1_a1 + 853 pi_d_a1_a0_proc_0
     + 853 pi_d_a1_a2_proc_0 + 853 pi_d_a1_a3_proc_0 + 853 pi_d_a1_a4_proc_0
     + 853 pi_d_a1_a5_proc_0 + 853 pi_d_a1_a7_proc_0 + 853 pi_d_a1_a9_proc_0
     + pi_y1_a1 + pi_y2_a1_proc_0 >= 0
 c9: 1022 pi_p_a1_a0 + 1022 pi_p_a1_a1 + 1022 pi_d_a1_a0_proc_2
     + 1022 pi_d_a1_a2_proc_2 + 1022 pi_d_a1_a4_proc_2 + 1022 pi_d_a1_a6_proc_2
     + 1022 pi_d_a1_a7_proc_2 + 1022 pi_d_a1_a9_proc_2 + pi_y1_a1
     + pi_y2_a1_proc_2 >= 0
 c10: - pi_p_a0_a2 - pi_p_a5_a2 + pi_p_a2_a6 + pi_p_a2_a7 - pi_d_a0_a2_proc_2
      - pi_d_a0_a2_proc_1 - pi_d_a0_a2_proc_0 + pi_d_a2_a0_proc_2
      + pi_d_a2_a0_proc_1 + pi_d_a2_a0_proc_0 - pi_d_a1_a2_proc_2
      - pi_d_a1_a2_proc_0 + pi_d_a2_a1_proc_2 + pi_d_a2_a1_proc_0
      + pi_d_a2_a3_proc_1 + pi_d_a2_a3_proc_0 - pi_d_a3_a2_proc_1
      - pi_d_a3_a2_proc_0 + pi_d_a2_a4_proc_2 + pi_d_a2_a4_proc_1
      + pi_d_a2_a4_proc_0 - pi_d_a4_a2_proc_2 - pi_d_a4_a2_proc_1
      - pi_d_a4_a2_proc_0 + pi_d_a2_a5_proc_1 + pi_d_a2_a5_proc_0
      - pi_d_a5_a2_proc_1 - pi_d_a5_a2_proc_0 + pi_d_a2_a6_proc_2
      - pi_d_a6_a2_proc_2 + pi_d_a2_a7_proc_2 + pi_d_a2_a7_proc_1
      + pi_d_a2_a7_proc_0 - pi_d_a7_a2_proc_2 - pi_d_a7_a2_proc_1
      - pi_d_a7_a2_proc_0 + pi_d_a2_a8_proc_1 - pi_d_a8_a2_proc_1
      + pi_d_a2_a9_proc_2 + pi_d_a2_a9_proc_1 + pi_d_a2_a9_proc_0
      - pi_d_a9_a2_proc_2 - pi_d_a9_a2_proc_1 - pi_d_a9_a2_proc_0 >= 0
 c11: 695 pi_p_a2_a6 + 695 pi_p_a2_a7 + 695 pi_d_a2_a0_proc_0
      + 695 pi_d_a2_a1_proc_0 + 695 pi_d_a2_a3_proc_0 + 695 pi_d_a2_a4_proc_0
      + 695 pi_d_a2_a5_proc_0 + 695 pi_d_a2_a7_proc_0 + 695 pi_d_a2_a9_proc_0
      + pi_y1_a2 + pi_y2_a2_proc_0 >= 0
 c12: 1168 pi_p_a2_a6 + 1168 pi_p_a2_a7 + 1168 pi_d_a2_a0_proc_1
      + 1168 pi_d_a2_a3_proc_1 + 1168 pi_d_a2_a4_proc_1 + 1168 pi_d_a2_a5_proc_1
      + 1168 pi_d_a2_a7_proc_1 + 1168 pi_d_a2_a8_proc_1 + 1168 pi_d_a2_a9_proc_1
      + pi_y1_a2 + pi_y2_a2_proc_1 >= 0
 c13: 1108 pi_p_a2_a6 + 1108 pi_p_a2_a7 + 1108 pi_d_a2_a0_proc_2
      + 1108 pi_d_a2_a1_proc_2 + 1108 pi_d_a2_a4_proc_2 + 1108 pi_d_a2_a6_proc_2
      + 1108 pi_d_a2_a7_proc_2 + 1108 pi_d_a2_a9_proc_2 + pi_y1_a2
      + pi_y2_a2_proc_2 >= 0
 c14: pi_p_a3_a0 + pi_p_a3_a4 - pi_p_a8_a3 - pi_p_a9_a3 - pi_d_a0_a3_proc_1
      - pi_d_a0_a3_proc_0 + pi_d_a3_a0_proc_1 + pi_d_a3_a0_proc_0
      - pi_d_a1_a3_proc_0 + pi_d_a3_a1_proc_0 - pi_d_a2_a3_proc_1
      - pi_d_a2_a3_proc_0 + pi_d_a3_a2_proc_1 + pi_d_a3_a2_proc_0
      + pi_d_a3_a4_proc_1 + pi_d_a3_a4_proc_0 - pi_d_a4_a3_proc_1
      - pi_d_a4_a3_proc_0 + pi_d_a3_a5_proc_1 + pi_d_a3_a5_proc_0
      - pi_d_a5_a3_proc_1 - pi_d_a5_a3_proc_0 + pi_d_a3_a7_proc_1
      + pi_d_a3_a7_proc_0 - pi_d_a7_a3_proc_1 - pi_d_a7_a3_proc_0
      + pi_d_a3_a8_proc_1 - pi_d_a8_a3_proc_1 + pi_d_a3_a9_proc_1
      + pi_d_a3_a9_proc_0 - pi_d_a9_a3_proc_1 - pi_d_a9_a3_proc_0 >= 0
 c15: 724 pi_p_a3_a0 + 724 pi_p_a3_a4 + 724 pi_d_a3_a0_proc_0
      + 724 pi_d_a3_a1_proc_0 + 724 pi_d_a3_a2_proc_0 + 724 pi_d_a3_a4_proc_0
      + 724 pi_d_a3_a5_proc_0 + 724 pi_d_a3_a7_proc_0 + 724 pi_d_a3_a9_proc_0
      + pi_y1_a3 + pi_y2_a3_proc_0 >= 0
 c16: 563 pi_p_a3_a0 + 563 pi_p_a3_a4 + 563 pi_d_a3_a0_proc_1
      + 563 pi_d_a3_a2_proc_1 + 563 pi_d_a3_a4_proc_1 + 563 pi_d_a3_a5_proc_1
      + 563 pi_d_a3_a7_proc_1 + 563 pi_d_a3_a8_proc_1 + 563 pi_d_a3_a9_proc_1
      + pi_y1_a3 + pi_y2_a3_proc_1 >= 0
 c17: - pi_p_a3_a4 - pi_p_a6_a4 - pi_d_a0_a4_proc_2 - pi_d_a0_a4_proc_1
      - pi_d_a0_a4_proc_0 + pi_d_a4_a0_proc_2 + pi_d_a4_a0_proc_1
      + pi_d_a4_a0_proc_0 - pi_d_a1_a4_proc_2 - pi_d_a1_a4_proc_0
      + pi_d_a4_a1_proc_2 + pi_d_a4_a1_proc_0 - pi_d_a2_a4_proc_2
      - pi_d_a2_a4_proc_1 - pi_d_a2_a4_proc_0 + pi_d_a4_a2_proc_2
      + pi_d_a4_a2_proc_1 + pi_d_a4_a2_proc_0 - pi_d_a3_a4_proc_1
      - pi_d_a3_a4_proc_0 + pi_d_a4_a3_proc_1 + pi_d_a4_a3_proc_0
      + pi_d_a4_a5_proc_1 + pi_d_a4_a5_proc_0 - pi_d_a5_a4_proc_1
      - pi_d_a5_a4_proc_0 + pi_d_a4_a6_proc_2 - pi_d_a6_a4_proc_2
      + pi_d_a4_a7_proc_2 + pi_d_a4_a7_proc_1 + pi_d_a4_a7_proc_0
      - pi_d_a7_a4_proc_2 - pi_d_a7_a4_proc_1 - pi_d_a7_a4_proc_0
      + pi_d_a4_a8_proc_1 - pi_d_a8_a4_proc_1 + pi_d_a4_a9_proc_2
      + pi_d_a4_a9_proc_1 + pi_d_a4_a9_proc_0 - pi_d_a9_a4_proc_2
      - pi_d_a9_a4_proc_1 - pi_d_a9_a4_proc_0 >= 0
 c18: 1050 pi_d_a4_a0_proc_0 + 1050 pi_d_a4_a1_proc_0 + 1050 pi_d_a4_a2_proc_0
      + 1050 pi_d_a4_a3_proc_0 + 1050 pi_d_a4_a5_proc_0 + 1050 pi_d_a4_a7_proc_0
      + 1050 pi_d_a4_a9_proc_0 + pi_y1_a4 + pi_y2_a4_proc_0 >= 0
 c19: 1032 pi_d_a4_a0_proc_1 + 1032 pi_d_a4_a2_proc_1 + 1032 pi_d_a4_a3_proc_1
      + 1032 pi_d_a4_a5_proc_1 + 1032 pi_d_a4_a7_proc_1 + 1032 pi_d_a4_a8_proc_1
      + 1032 pi_d_a4_a9_proc_1 + pi_y1_a4 + pi_y2_a4_proc_1 >= 0
 c20: 831 pi_d_a4_a0_proc_2 + 831 pi_d_a4_a1_proc_2 + 831 pi_d_a4_a2_proc_2
      + 831 pi_d_a4_a6_proc_2 + 831 pi_d_a4_a7_proc_2 + 831 pi_d_a4_a9_proc_2
      + pi_y1_a4 + pi_y2_a4_proc_2 >= 0
 c21: pi_p_a5_a2 - pi_p_a7_a5 - pi_p_a9_a5 - pi_d_a0_a5_proc_1
      - pi_d_a0_a5_proc_0 + pi_d_a5_a0_proc_1 + pi_d_a5_a0_proc_0
      - pi_d_a1_a5_proc_0 + pi_d_a5_a1_proc_0 - pi_d_a2_a5_proc_1
      - pi_d_a2_a5_proc_0 + pi_d_a5_a2_proc_1 + pi_d_a5_a2_proc_0
      - pi_d_a3_a5_proc_1 - pi_d_a3_a5_proc_0 + pi_d_a5_a3_proc_1
      + pi_d_a5_a3_proc_0 - pi_d_a4_a5_proc_1 - pi_d_a4_a5_proc_0
      + pi_d_a5_a4_proc_1 + pi_d_a5_a4_proc_0 + pi_d_a5_a7_proc_1
      + pi_d_a5_a7_proc_0 - pi_d_a7_a5_proc_1 - pi_d_a7_a5_proc_0
      + pi_d_a5_a8_proc_1 - pi_d_a8_a5_proc_1 + pi_d_a5_a9_proc_1
      + pi_d_a5_a9_proc_0 - pi_d_a9_a5_proc_1 - pi_d_a9_a5_proc_0 >= 0
 c22: 767 pi_p_a5_a2 + 767 pi_d_a5_a0_proc_0 + 767 pi_d_a5_a1_proc_0
      + 767 pi_d_a5_a2_proc_0 + 767 pi_d_a5_a3_proc_0 + 767 pi_d_a5_a4_proc_0
      + 767 pi_d_a5_a7_proc_0 + 767 pi_d_a5_a9_proc_0 + pi_y1_a5
      + pi_y2_a5_proc_0 >= 0
 c23: 720 pi_p_a5_a2 + 720 pi_d_a5_a0_proc_1 + 720 pi_d_a5_a2_proc_1
      + 720 pi_d_a5_a3_proc_1 + 720 pi_d_a5_a4_proc_1 + 720 pi_d_a5_a7_proc_1
      + 720 pi_d_a5_a8_proc_1 + 720 pi_d_a5_a9_proc_1 + pi_y1_a5
      + pi_y2_a5_proc_1 >= 0
 c24: - pi_p_a2_a6 + pi_p_a6_a8 + pi_p_a6_a4 - pi_d_a0_a6_proc_2
      + pi_d_a6_a0_proc_2 - pi_d_a1_a6_proc_2 + pi_d_a6_a1_proc_2
      - pi_d_a2_a6_proc_2 + pi_d_a6_a2_proc_2 - pi_d_a4_a6_proc_2
      + pi_d_a6_a4_proc_2 + pi_d_a6_a7_proc_2 - pi_d_a7_a6_proc_2
      + pi_d_a6_a9_proc_2 - pi_d_a9_a6_proc_2 >= 0
 c25: 649 pi_p_a6_a8 + 649 pi_p_a6_a4 + 649 pi_d_a6_a0_proc_2
      + 649 pi_d_a6_a1_proc_2 + 649 pi_d_a6_a2_proc_2 + 649 pi_d_a6_a4_proc_2
      + 649 pi_d_a6_a7_proc_2 + 649 pi_d_a6_a9_proc_2 + pi_y1_a6
      + pi_y2_a6_proc_2 >= 0
 c26: pi_p_a7_a5 - pi_p_a2_a7 - pi_d_a0_a7_proc_2 - pi_d_a0_a7_proc_1
      - pi_d_a0_a7_proc_0 + pi_d_a7_a0_proc_2 + pi_d_a7_a0_proc_1
      + pi_d_a7_a0_proc_0 - pi_d_a1_a7_proc_2 - pi_d_a1_a7_proc_0
      + pi_d_a7_a1_proc_2 + pi_d_a7_a1_proc_0 - pi_d_a2_a7_proc_2
      - pi_d_a2_a7_proc_1 - pi_d_a2_a7_proc_0 + pi_d_a7_a2_proc_2
      + pi_d_a7_a2_proc_1 + pi_d_a7_a2_proc_0 - pi_d_a3_a7_proc_1
      - pi_d_a3_a7_proc_0 + pi_d_a7_a3_proc_1 + pi_d_a7_a3_proc_0
      - pi_d_a4_a7_proc_2 - pi_d_a4_a7_proc_1 - pi_d_a4_a7_proc_0
      + pi_d_a7_a4_proc_2 + pi_d_a7_a4_proc_1 + pi_d_a7_a4_proc_0
      - pi_d_a5_a7_proc_1 - pi_d_a5_a7_proc_0 + pi_d_a7_a5_proc_1
      + pi_d_a7_a5_proc_0 - pi_d_a6_a7_proc_2 + pi_d_a7_a6_proc_2
      + pi_d_a7_a8_proc_1 - pi_d_a8_a7_proc_1 + pi_d_a7_a9_proc_2
      + pi_d_a7_a9_proc_1 + pi_d_a7_a9_proc_0 - pi_d_a9_a7_proc_2
      - pi_d_a9_a7_proc_1 - pi_d_a9_a7_proc_0 >= 0
 c27: 1009 pi_p_a7_a5 + 1009 pi_d_a7_a0_proc_0 + 1009 pi_d_a7_a1_proc_0
      + 1009 pi_d_a7_a2_proc_0 + 1009 pi_d_a7_a3_proc_0 + 1009 pi_d_a7_a4_proc_0
      + 1009 pi_d_a7_a5_proc_0 + 1009 pi_d_a7_a9_proc_0 + pi_y1_a7
      + pi_y2_a7_proc_0 >= 0
 c28: 590 pi_p_a7_a5 + 590 pi_d_a7_a0_proc_1 + 590 pi_d_a7_a2_proc_1
      + 590 pi_d_a7_a3_proc_1 + 590 pi_d_a7_a4_proc_1 + 590 pi_d_a7_a5_proc_1
      + 590 pi_d_a7_a8_proc_1 + 590 pi_d_a7_a9_proc_1 + pi_y1_a7
      + pi_y2_a7_proc_1 >= 0
 c29: 512 pi_p_a7_a5 + 512 pi_d_a7_a0_proc_2 + 512 pi_d_a7_a1_proc_2
      + 512 pi_d_a7_a2_proc_2 + 512 pi_d_a7_a4_proc_2 + 512 pi_d_a7_a6_proc_2
      + 512 pi_d_a7_a9_proc_2 + pi_y1_a7 + pi_y2_a7_proc_2 >= 0
 c30: pi_p_a8_a3 - pi_p_a6_a8 - pi_d_a0_a8_proc_1 + pi_d_a8_a0_proc_1
      - pi_d_a2_a8_proc_1 + pi_d_a8_a2_proc_1 - pi_d_a3_a8_proc_1
      + pi_d_a8_a3_proc_1 - pi_d_a4_a8_proc_1 + pi_d_a8_a4_proc_1
      - pi_d_a5_a8_proc_1 + pi_d_a8_a5_proc_1 - pi_d_a7_a8_proc_1
      + pi_d_a8_a7_proc_1 + pi_d_a8_a9_proc_1 - pi_d_a9_a8_proc_1 >= 0
 c31: 532 pi_p_a8_a3 + 532 pi_d_a8_a0_proc_1 + 532 pi_d_a8_a2_proc_1
      + 532 pi_d_a8_a3_proc_1 + 532 pi_d_a8_a4_proc_1 + 532 pi_d_a8_a5_proc_1
      + 532 pi_d_a8_a7_proc_1 + 532 pi_d_a8_a9_proc_1 + pi_y1_a8
      + pi_y2_a8_proc_1 >= 0
 c32: pi_p_a9_a5 - pi_p_a0_a9 + pi_p_a9_a3 - pi_d_a0_a9_proc_2
      - pi_d_a0_a9_proc_1 - pi_d_a0_a9_proc_0 + pi_d_a9_a0_proc_2
      + pi_d_a9_a0_proc_1 + pi_d_a9_a0_proc_0 - pi_d_a1_a9_proc_2
      - pi_d_a1_a9_proc_0 + pi_d_a9_a1_proc_2 + pi_d_a9_a1_proc_0
      - pi_d_a2_a9_proc_2 - pi_d_a2_a9_proc_1 - pi_d_a2_a9_proc_0
      + pi_d_a9_a2_proc_2 + pi_d_a9_a2_proc_1 + pi_d_a9_a2_proc_0
      - pi_d_a3_a9_proc_1 - pi_d_a3_a9_proc_0 + pi_d_a9_a3_proc_1
      + pi_d_a9_a3_proc_0 - pi_d_a4_a9_proc_2 - pi_d_a4_a9_proc_1
      - pi_d_a4_a9_proc_0 + pi_d_a9_a4_proc_2 + pi_d_a9_a4_proc_1
      + pi_d_a9_a4_proc_0 - pi_d_a5_a9_proc_1 - pi_d_a5_a9_proc_0
      + pi_d_a9_a5_proc_1 + pi_d_a9_a5_proc_0 - pi_d_a6_a9_proc_2
      + pi_d_a9_a6_proc_2 - pi_d_a7_a9_proc_2 - pi_d_a7_a9_proc_1
      - pi_d_a7_a9_proc_0 + pi_d_a9_a7_proc_2 + pi_d_a9_a7_proc_1
      + pi_d_a9_a7_proc_0 - pi_d_a8_a9_proc_1 + pi_d_a9_a8_proc_1 >= 0
 c33: 829 pi_p_a9_a5 + 829 pi_p_a9_a3 + 829 pi_p_a9_a9 + 829 pi_d_a9_a0_proc_0
      + 829 pi_d_a9_a1_proc_0 + 829 pi_d_a9_a2_proc_0 + 829 pi_d_a9_a3_proc_0
      + 829 pi_d_a9_a4_proc_0 + 829 pi_d_a9_a5_proc_0 + 829 pi_d_a9_a7_proc_0
      + pi_y1_a9 + pi_y2_a9_proc_0 >= 0
 c34: 1241 pi_p_a9_a5 + 1241 pi_p_a9_a3 + 1241 pi_p_a9_a9
      + 1241 pi_d_a9_a0_proc_1 + 1241 pi_d_a9_a2_proc_1 + 1241 pi_d_a9_a3_proc_1
      + 1241 pi_d_a9_a4_proc_1 + 1241 pi_d_a9_a5_proc_1 + 1241 pi_d_a9_a7_proc_1
      + 1241 pi_d_a9_a8_proc_1 + pi_y1_a9 + pi_y2_a9_proc_1 >= 0
 c35: 1204 pi_p_a9_a5 + 1204 pi_p_a9_a3 + 1204 pi_p_a9_a9
      + 1204 pi_d_a9_a0_proc_2 + 1204 pi_d_a9_a1_proc_2 + 1204 pi_d_a9_a2_proc_2
      + 1204 pi_d_a9_a4_proc_2 + 1204 pi_d_a9_a6_proc_2 + 1204 pi_d_a9_a7_proc_2
      + pi_y1_a9 + pi_y2_a9_proc_2 >= 0

Bounds
       pi_y1_a0 Free
       pi_y1_a1 Free
       pi_y1_a2 Free
       pi_y1_a3 Free
       pi_y1_a4 Free
       pi_y1_a5 Free
       pi_y1_a6 Free
       pi_y1_a7 Free
       pi_y1_a8 Free
       pi_y1_a9 Free
End
