benchmark/results/graph__10-1000-0.10-03_14/graph__10-1000-0.10-03_14_QuintonOs_Benders_aux.txt
solution for: Quinton Bounded Benders_auxiliary_sub
objective: 0.00023218
status: OPTIMAL_SOLUTION(2)
pi_p_a3_a0=0.000
pi_p_a5_a2=0.000
pi_p_a2_a6=0.000
pi_p_a8_a3=0.000
pi_p_a9_a5=0.000
pi_p_a0_a9=0.000
pi_p_a6_a8=0.000
pi_y1_a0=-0.074
pi_y1_a2=-0.161
pi_y1_a3=-0.131
pi_y1_a5=-0.167
pi_y1_a6=-0.151
pi_y1_a8=-0.124
pi_y1_a9=-0.192
